Route #1: 132 83 125 80 130 17 76 128 100
Route #2: 82 133 12 85 29 119 31 92
Route #3: 112 48 64 117 49 71 61 1 69
Route #4: 79 120 43 90 108 6 77 30 68 15 81 63 7 121 5 97
Route #5: 93 42 65 28 75 20 126 55 22 67 27 70 4 44 107 84 8 98 23 53 66 13 96
Route #6: 57 104 46 99 21 45 102 94 36 111
Route #7: 74 50 26 35 106 3 72 124 38
Route #8: 33 86 103 10 54 110 56 123
Route #9: 32 24 37 88 62 89 116 129
Route #10: 60 91 58 14 34 105 25 113
Route #11: 41 2 39 9 47 16 51
Route #12: 114 11 131 52 101 59 18 73
Route #13: 122 95 40 127 19 115 118 109
Route #14: 78 87
Cost 13252
